(declare-fun var0 () String)
(declare-fun var1 () String)
(declare-fun var2 () String)
(declare-fun var3 () String)
(declare-fun var4 () String)
(declare-fun var5 () String)
(declare-fun var6 () String)
(declare-fun var7 () String)
(declare-fun var8 () String)
(declare-fun var9 () String)
(declare-fun var10 () String)
(declare-fun var11 () String)
(declare-fun var12 () String)
(declare-fun var13 () String)
(declare-fun var14 () String)
(declare-fun var15 () String)
(declare-fun var16 () String)
(declare-fun var17 () String)
(declare-fun var18 () String)
(declare-fun var19 () String)
(declare-fun var20 () String)
(declare-fun var21 () String)
(declare-fun var22 () String)
(declare-fun var23 () String)
(declare-fun var24 () String)
(declare-fun var25 () String)
(declare-fun var26 () String)
(declare-fun var27 () String)
(declare-fun var28 () String)
(declare-fun var29 () String)
(declare-fun var30 () String)
(declare-fun var31 () String)
(declare-fun var32 () String)
(declare-fun var33 () String)
(declare-fun var34 () String)
(declare-fun var35 () String)
(declare-fun var36 () String)
(declare-fun var37 () String)
(declare-fun var38 () String)
(declare-fun var39 () String)
(declare-fun var40 () String)
(declare-fun var41 () String)
(declare-fun var42 () String)
(declare-fun var43 () String)
(declare-fun var44 () String)
(declare-fun var45 () String)
(declare-fun var46 () String)
(declare-fun var47 () String)
(declare-fun var48 () String)
(declare-fun var49 () String)
(declare-fun var50 () String)
(declare-fun var51 () String)
(declare-fun var52 () String)
(declare-fun var53 () String)
(declare-fun var54 () String)
(declare-fun var55 () String)
(declare-fun var56 () String)
(declare-fun var57 () String)
(declare-fun var58 () String)
(declare-fun var59 () String)
(declare-fun var60 () String)
(assert (= var0 (Concat var1 var2)))
(assert (= var2 (Concat var3 var4)))
(assert (= var4 (Concat var5 var6)))
(assert (= var6 (Concat var7 var8)))
(assert (= var8 (Concat var9 var10)))
(assert (= var10 (Concat var11 var12)))
(assert (= var12 (Concat var13 var14)))
(assert (= var14 (Concat var15 var16)))
(assert (= var16 (Concat var17 var18)))
(assert (= var18 (Concat var19 var20)))
(assert (= var20 (Concat var21 var22)))
(assert (= var22 (Concat var23 var24)))
(assert (= var24 (Concat var25 var26)))
(assert (= var26 (Concat var27 var28)))
(assert (= var28 (Concat var29 var30)))
(assert (= var30 (Concat var31 var32)))
(assert (= var32 (Concat var33 var34)))
(assert (= var34 (Concat var35 var36)))
(assert (= var36 (Concat var37 var38)))
(assert (= var38 (Concat var39 var40)))
(assert (= var40 (Concat var41 var42)))
(assert (= var42 (Concat var43 var44)))
(assert (= var44 (Concat var45 var46)))
(assert (= var46 (Concat var47 var48)))
(assert (= var48 (Concat var49 var50)))
(assert (= var50 (Concat var51 var52)))
(assert (= var52 (Concat var53 var54)))
(assert (= var54 (Concat var55 var56)))
(assert (= var56 (Concat var57 var58)))
(assert (= var58 (Concat var59 var60)))
(assert (= var0 "solution"))
(assert (= "\\" (CharAt var34 344)))
(assert (= ")" (CharAt var42 263)))
(assert (= "?" (CharAt var3 602)))
(assert (= "(" (CharAt var46 866)))
(assert (= "R" (CharAt var7 100)))
(assert (= ";" (CharAt var58 378)))
(assert (= "I" (CharAt var16 693)))
(assert (= "/" (CharAt var33 488)))
(assert (= "z" (CharAt var23 221)))
(assert (= "T" (CharAt var17 338)))
(assert (= "m" (CharAt var40 730)))
(assert (= "_" (CharAt var25 540)))
(assert (= "c" (CharAt var34 692)))
(assert (= "0" (CharAt var22 902)))
(assert (= "C" (CharAt var41 424)))
(assert (= "}" (CharAt var50 726)))
(assert (= "2" (CharAt var37 660)))
(assert (= "j" (CharAt var4 595)))
(assert (= "," (CharAt var44 848)))
(assert (= ";" (CharAt var38 837)))
(assert (= "O" (CharAt var49 327)))
(assert (= "0" (CharAt var56 663)))
(assert (= "@" (CharAt var35 102)))
(assert (= "n" (CharAt var29 535)))
(assert (= "Q" (CharAt var50 789)))
(assert (= "W" (CharAt var38 13)))
(assert (= "h" (CharAt var23 119)))
(assert (= "<" (CharAt var19 936)))
(assert (= "!" (CharAt var25 140)))
(assert (= "f" (CharAt var37 979)))
(assert (= "v" (CharAt var18 741)))
(assert (= "[" (CharAt var31 135)))
(assert (= "\"" (CharAt var17 943)))
(assert (= "|" (CharAt var11 688)))
(assert (= "r" (CharAt var22 996)))
(assert (= "c" (CharAt var16 767)))
(assert (= "A" (CharAt var23 167)))
(assert (= "#" (CharAt var25 84)))
(assert (= "*" (CharAt var55 965)))
(assert (= "+" (CharAt var52 399)))
(assert (= "@" (CharAt var45 25)))
(assert (= "@" (CharAt var58 137)))
(assert (= "o" (CharAt var0 978)))
(assert (= "W" (CharAt var34 893)))
(assert (= "O" (CharAt var9 574)))
(assert (= "J" (CharAt var23 468)))
(assert (= "j" (CharAt var11 147)))
(assert (= ")" (CharAt var28 547)))
(assert (= "[" (CharAt var23 130)))
(assert (= "T" (CharAt var33 998)))
(assert (= "." (CharAt var22 333)))
(assert (= "?" (CharAt var59 360)))
(assert (= "F" (CharAt var39 83)))
(assert (= "B" (CharAt var48 190)))
(assert (= "4" (CharAt var44 249)))
(assert (= "z" (CharAt var6 897)))
(assert (= "=" (CharAt var12 130)))
(assert (= "`" (CharAt var53 371)))
(assert (= "<" (CharAt var24 276)))
(assert (= "n" (CharAt var9 624)))
(assert (= "`" (CharAt var47 992)))
(assert (= "r" (CharAt var59 869)))
(assert (= "r" (CharAt var38 82)))
(assert (= "{" (CharAt var42 321)))
(assert (= "O" (CharAt var46 136)))
(assert (= "(" (CharAt var49 318)))
(assert (= "J" (CharAt var1 45)))
(assert (= "B" (CharAt var17 993)))
(assert (= "}" (CharAt var48 564)))
(assert (= "^" (CharAt var9 435)))
(assert (= "r" (CharAt var16 603)))
(assert (= "e" (CharAt var49 700)))
(assert (= "_" (CharAt var3 162)))
(assert (= "o" (CharAt var40 122)))
(assert (= "M" (CharAt var37 517)))
(assert (= "\"" (CharAt var43 226)))
(assert (= "X" (CharAt var49 897)))
(assert (= "6" (CharAt var9 731)))
(assert (= "<" (CharAt var13 488)))
(assert (= "*" (CharAt var7 357)))
(assert (= "l" (CharAt var7 703)))
(assert (= "t" (CharAt var15 229)))
(assert (= "6" (CharAt var17 641)))
(assert (= "G" (CharAt var51 521)))
(assert (= "v" (CharAt var20 927)))
(assert (= ":" (CharAt var41 557)))
(assert (= "W" (CharAt var48 85)))
(assert (= "=" (CharAt var20 383)))
(assert (= "Z" (CharAt var31 903)))
(assert (= "P" (CharAt var0 3)))
(assert (= "2" (CharAt var35 159)))
(assert (= "-" (CharAt var7 810)))
(assert (= "K" (CharAt var52 255)))
(assert (= "F" (CharAt var24 42)))
(assert (= "*" (CharAt var4 876)))
(assert (= "H" (CharAt var40 342)))
(assert (= "," (CharAt var9 785)))
(assert (= "9" (CharAt var16 90)))
(assert (= "s" (CharAt var23 684)))
(assert (= "~" (CharAt var7 240)))
(assert (= "8" (CharAt var60 74)))
(assert (= "(" (CharAt var35 428)))
(assert (= "w" (CharAt var31 429)))
(assert (= "." (CharAt var26 102)))
(assert (= "R" (CharAt var19 992)))
(assert (= "V" (CharAt var39 103)))
(assert (= "g" (CharAt var42 318)))
(assert (= "#" (CharAt var51 354)))
(assert (= "Z" (CharAt var19 547)))
(assert (= "h" (CharAt var1 988)))
(assert (= "2" (CharAt var58 183)))
(assert (= "P" (CharAt var22 188)))
(assert (= "Q" (CharAt var36 998)))
(assert (= "Q" (CharAt var52 584)))
(assert (= "=" (CharAt var45 165)))
(assert (= "1" (CharAt var22 235)))
(assert (= "W" (CharAt var25 32)))
(assert (= "X" (CharAt var55 849)))
(assert (= "y" (CharAt var42 851)))
(assert (= "%" (CharAt var33 967)))
(assert (= "K" (CharAt var1 419)))
(assert (= "f" (CharAt var56 636)))
(assert (= "z" (CharAt var28 172)))
(assert (= "-" (CharAt var9 250)))
(assert (= "3" (CharAt var46 888)))
(assert (= "I" (CharAt var49 325)))
(assert (= "." (CharAt var51 680)))
(assert (= "G" (CharAt var23 14)))
(assert (= "4" (CharAt var20 264)))
(assert (= "R" (CharAt var22 793)))
(assert (= "'" (CharAt var0 330)))
(assert (= "5" (CharAt var30 770)))
(assert (= "/" (CharAt var30 472)))
(assert (= "5" (CharAt var34 774)))
(assert (= "d" (CharAt var24 727)))
(assert (= "@" (CharAt var55 775)))
(assert (= "G" (CharAt var19 937)))
(assert (= "0" (CharAt var49 251)))
(assert (= "j" (CharAt var23 353)))
(assert (= "Q" (CharAt var3 910)))
(assert (= "{" (CharAt var27 511)))
(assert (= "!" (CharAt var18 281)))
(assert (= "#" (CharAt var11 463)))
(assert (= "c" (CharAt var2 694)))
(assert (= "_" (CharAt var28 489)))
(assert (= "C" (CharAt var15 591)))
(assert (= "v" (CharAt var58 431)))
(assert (= "9" (CharAt var41 271)))
(assert (= "," (CharAt var39 138)))
(assert (= "n" (CharAt var43 193)))
(assert (= "z" (CharAt var12 337)))
(assert (= "\\" (CharAt var57 773)))
(assert (= "?" (CharAt var49 308)))
(assert (= "a" (CharAt var27 496)))
(assert (= "s" (CharAt var33 970)))
(assert (= "o" (CharAt var47 476)))
(assert (= "k" (CharAt var4 420)))
(assert (= "k" (CharAt var21 90)))
(assert (= ";" (CharAt var43 600)))
(assert (= "&" (CharAt var36 444)))
(assert (= "E" (CharAt var10 910)))
(assert (= "=" (CharAt var18 477)))
(assert (= "l" (CharAt var58 622)))
(assert (= "," (CharAt var33 940)))
(assert (= "v" (CharAt var43 785)))
(assert (= "|" (CharAt var23 741)))
(assert (= "Z" (CharAt var52 854)))
(assert (= "*" (CharAt var23 967)))
(assert (= "}" (CharAt var5 920)))
(assert (= "?" (CharAt var24 795)))
(assert (= "s" (CharAt var3 24)))
(assert (= "?" (CharAt var25 251)))
(assert (= "n" (CharAt var58 559)))
(assert (= "<" (CharAt var30 286)))
(assert (= ">" (CharAt var26 808)))
(assert (= "%" (CharAt var59 433)))
(assert (= "(" (CharAt var19 587)))
(assert (= "K" (CharAt var53 807)))
(assert (= "E" (CharAt var45 531)))
(assert (= "," (CharAt var21 67)))
(assert (= "!" (CharAt var27 423)))
(assert (= "\"" (CharAt var1 481)))
(assert (= "9" (CharAt var19 864)))
(assert (= "<" (CharAt var15 365)))
(assert (= "^" (CharAt var39 437)))
(assert (= "[" (CharAt var28 297)))
(assert (= "q" (CharAt var14 70)))
(assert (= "D" (CharAt var0 504)))
(assert (= "'" (CharAt var37 767)))
(assert (= "7" (CharAt var52 683)))
(assert (= "/" (CharAt var11 93)))
(assert (= "x" (CharAt var30 55)))
(assert (= "B" (CharAt var57 508)))
(assert (= "x" (CharAt var9 593)))
(assert (= "_" (CharAt var41 493)))
(assert (= ")" (CharAt var9 455)))
(assert (= "0" (CharAt var8 336)))
(assert (= "<" (CharAt var49 341)))
(assert (= ">" (CharAt var39 653)))
(assert (= "X" (CharAt var40 406)))
(assert (= "]" (CharAt var21 288)))
(assert (= "g" (CharAt var30 262)))
(assert (= "p" (CharAt var40 878)))
(assert (= "Z" (CharAt var46 197)))
(assert (= "~" (CharAt var29 925)))
(assert (= "y" (CharAt var37 42)))
(assert (= "?" (CharAt var50 290)))
(assert (= "A" (CharAt var52 796)))
(assert (= "N" (CharAt var58 330)))
(assert (= "4" (CharAt var55 871)))
(assert (= "V" (CharAt var44 177)))
(assert (= ">" (CharAt var43 732)))
(assert (= "F" (CharAt var43 809)))
(assert (= "N" (CharAt var59 826)))
(assert (= "{" (CharAt var25 274)))
(assert (= "g" (CharAt var10 996)))
(assert (= "P" (CharAt var7 70)))
(assert (= "h" (CharAt var40 281)))
(assert (= "3" (CharAt var19 740)))
(assert (= "F" (CharAt var27 998)))
(assert (= "W" (CharAt var8 611)))
(assert (= "1" (CharAt var30 713)))
(assert (= "]" (CharAt var23 806)))
(assert (= "I" (CharAt var51 133)))
(assert (= "o" (CharAt var60 35)))
(assert (= "F" (CharAt var6 164)))
(assert (= ")" (CharAt var37 590)))
(assert (= "s" (CharAt var19 945)))
(assert (= "7" (CharAt var53 149)))
(assert (= "P" (CharAt var52 534)))
(assert (= "N" (CharAt var15 765)))
(assert (= "6" (CharAt var47 617)))
(assert (= "3" (CharAt var22 291)))
(assert (= "c" (CharAt var42 301)))
(assert (= "$" (CharAt var18 4)))
(assert (= "@" (CharAt var17 415)))
(assert (= "o" (CharAt var36 718)))
(assert (= "c" (CharAt var18 526)))
(assert (= "b" (CharAt var35 995)))
(assert (= "R" (CharAt var13 119)))
(assert (= "J" (CharAt var11 197)))
(assert (= "p" (CharAt var28 976)))
(assert (= "$" (CharAt var21 466)))
(assert (= "W" (CharAt var16 297)))
(assert (= "(" (CharAt var2 836)))
(assert (= "|" (CharAt var29 298)))
(assert (= "l" (CharAt var0 842)))
(assert (= "A" (CharAt var58 45)))
(assert (= "*" (CharAt var53 381)))
(assert (= "#" (CharAt var11 547)))
(assert (= "1" (CharAt var13 248)))
(assert (= ":" (CharAt var28 258)))
(assert (= "1" (CharAt var60 909)))
(assert (= "h" (CharAt var20 743)))
(assert (= "v" (CharAt var45 183)))
(assert (= "k" (CharAt var3 140)))
(assert (= "h" (CharAt var41 282)))
(assert (= "S" (CharAt var14 298)))
(assert (= "B" (CharAt var39 76)))
(assert (= "#" (CharAt var46 151)))
(assert (= "(" (CharAt var55 846)))
(assert (= "S" (CharAt var35 750)))
(assert (= "s" (CharAt var15 166)))
(assert (= "A" (CharAt var50 368)))
(assert (= "D" (CharAt var28 492)))
(assert (= "]" (CharAt var11 509)))
(assert (= "w" (CharAt var59 330)))
(assert (= "`" (CharAt var7 371)))
(assert (= "%" (CharAt var11 515)))
(assert (= "A" (CharAt var22 490)))
(assert (= "D" (CharAt var59 192)))
(assert (= ":" (CharAt var47 31)))
(assert (= "8" (CharAt var27 165)))
(assert (= "L" (CharAt var1 288)))
(assert (= "$" (CharAt var31 463)))
(assert (= "^" (CharAt var39 28)))
(assert (= "Q" (CharAt var25 428)))
(assert (= "?" (CharAt var1 18)))
(assert (= "9" (CharAt var58 526)))
(assert (= "Y" (CharAt var20 267)))
(assert (= "$" (CharAt var15 705)))
(assert (= "Q" (CharAt var36 582)))
(assert (= "B" (CharAt var47 23)))
(assert (= "z" (CharAt var58 153)))
(assert (= "X" (CharAt var17 953)))
(assert (= "E" (CharAt var43 244)))
(assert (= "d" (CharAt var28 113)))
(assert (= "c" (CharAt var17 571)))
(assert (= "L" (CharAt var54 950)))
(assert (= "\"" (CharAt var6 770)))
(assert (= "'" (CharAt var54 233)))
(assert (= "U" (CharAt var7 352)))
(assert (= "?" (CharAt var38 99)))
(assert (= "?" (CharAt var55 320)))
(assert (= "=" (CharAt var11 905)))
(assert (= "&" (CharAt var31 794)))
(assert (= "c" (CharAt var54 54)))
(assert (= "<" (CharAt var36 868)))
(assert (= "F" (CharAt var10 777)))
(assert (= "Q" (CharAt var46 7)))
(assert (= "%" (CharAt var54 718)))
(assert (= "-" (CharAt var51 135)))
(assert (= "%" (CharAt var26 761)))
(assert (= "W" (CharAt var36 642)))
(assert (= "@" (CharAt var55 264)))
(assert (= "]" (CharAt var18 929)))
(assert (= "%" (CharAt var21 523)))
(assert (= "]" (CharAt var17 810)))
(assert (= "U" (CharAt var46 709)))
(assert (= "B" (CharAt var40 985)))
(assert (= "t" (CharAt var33 213)))
(assert (= "2" (CharAt var25 850)))
(assert (= "\"" (CharAt var34 428)))
(assert (= "M" (CharAt var37 151)))
(assert (= "2" (CharAt var3 652)))
(assert (= "?" (CharAt var30 886)))
(assert (= "/" (CharAt var57 22)))
(assert (= "|" (CharAt var24 845)))
(assert (= "N" (CharAt var38 507)))
(assert (= "m" (CharAt var40 352)))
(assert (= "o" (CharAt var14 518)))
(assert (= "X" (CharAt var46 231)))
(assert (= "d" (CharAt var60 521)))
(assert (= "." (CharAt var25 636)))
(assert (= "|" (CharAt var21 457)))
(assert (= "j" (CharAt var54 152)))
(assert (= "/" (CharAt var28 160)))
(assert (= "\"" (CharAt var16 116)))
(assert (= "@" (CharAt var42 532)))
(assert (= "!" (CharAt var57 532)))
(assert (= "t" (CharAt var37 204)))
(assert (= "L" (CharAt var10 784)))
(assert (= ":" (CharAt var4 330)))
(assert (= "g" (CharAt var11 705)))
(assert (= "!" (CharAt var2 862)))
(assert (= "c" (CharAt var13 840)))
(assert (= "P" (CharAt var42 975)))
(assert (= "|" (CharAt var51 572)))
(assert (= "=" (CharAt var37 366)))
(assert (= "-" (CharAt var59 364)))
(assert (= "e" (CharAt var31 619)))
(assert (= "O" (CharAt var36 452)))
(assert (= "." (CharAt var48 437)))
(assert (= "O" (CharAt var23 376)))
(assert (= "t" (CharAt var7 349)))
(assert (= "i" (CharAt var8 693)))
(assert (= "e" (CharAt var60 805)))
(assert (= "e" (CharAt var59 930)))
(assert (= "@" (CharAt var30 990)))
(assert (= "C" (CharAt var26 22)))
(assert (= "Z" (CharAt var43 472)))
(assert (= "q" (CharAt var38 325)))
(assert (= "/" (CharAt var21 720)))
(assert (= ")" (CharAt var60 189)))
(assert (= "=" (CharAt var48 535)))
(assert (= "*" (CharAt var40 331)))
(assert (= ";" (CharAt var54 459)))
(assert (= ">" (CharAt var20 64)))
(assert (= "|" (CharAt var33 140)))
(assert (= "(" (CharAt var29 899)))
(assert (= "C" (CharAt var5 375)))
(assert (= ";" (CharAt var27 939)))
(assert (= "v" (CharAt var9 834)))
(assert (= "J" (CharAt var34 197)))
(assert (= "q" (CharAt var2 344)))
(assert (= "(" (CharAt var32 832)))
(assert (= "i" (CharAt var45 898)))
(assert (= "<" (CharAt var39 346)))
(assert (= "g" (CharAt var0 220)))
(assert (= "I" (CharAt var39 127)))
(assert (= "k" (CharAt var24 38)))
(assert (= "H" (CharAt var59 571)))
(assert (= "b" (CharAt var24 555)))
(assert (= "8" (CharAt var41 237)))
(assert (= "~" (CharAt var15 759)))
(assert (= "A" (CharAt var47 477)))
(assert (= "1" (CharAt var58 798)))
(assert (= "@" (CharAt var10 659)))
(assert (= ">" (CharAt var1 106)))
(assert (= "A" (CharAt var37 724)))
(assert (= "N" (CharAt var46 377)))
(assert (= "[" (CharAt var22 25)))
(assert (= "h" (CharAt var19 445)))
(assert (= "B" (CharAt var42 647)))
(assert (= "i" (CharAt var33 636)))
(assert (= "O" (CharAt var48 516)))
(assert (= ";" (CharAt var40 124)))
(assert (= "O" (CharAt var5 235)))
(assert (= "Q" (CharAt var40 361)))
(assert (= "L" (CharAt var36 514)))
(assert (= "r" (CharAt var60 662)))
(assert (= "a" (CharAt var43 16)))
(assert (= "0" (CharAt var53 506)))
(assert (= "\"" (CharAt var27 576)))
(assert (= "<" (CharAt var34 577)))
(assert (= "h" (CharAt var29 336)))
(assert (= "}" (CharAt var49 545)))
(assert (= "6" (CharAt var0 58)))
(assert (= "<" (CharAt var46 129)))
(assert (= "^" (CharAt var7 964)))
(assert (= "W" (CharAt var47 436)))
(assert (= "}" (CharAt var53 560)))
(assert (= "9" (CharAt var55 748)))
(assert (= "k" (CharAt var25 115)))
(assert (= "R" (CharAt var42 52)))
(assert (= "Z" (CharAt var17 475)))
(assert (= "d" (CharAt var31 25)))
(assert (= "P" (CharAt var57 573)))
(assert (= "r" (CharAt var49 121)))
(assert (= "p" (CharAt var13 677)))
(assert (= "c" (CharAt var33 612)))
(assert (= "." (CharAt var12 528)))
(assert (= "f" (CharAt var27 117)))
(assert (= "s" (CharAt var35 16)))
(assert (= "R" (CharAt var18 542)))
(assert (= "J" (CharAt var55 585)))
(assert (= "G" (CharAt var14 257)))
(assert (= "?" (CharAt var56 917)))
(assert (= "C" (CharAt var14 812)))
(assert (= "#" (CharAt var27 306)))
(assert (= "%" (CharAt var15 958)))
(assert (= "Y" (CharAt var44 574)))
(assert (= "I" (CharAt var5 744)))
(assert (= "s" (CharAt var58 743)))
(assert (= "&" (CharAt var37 485)))
(assert (= "&" (CharAt var14 299)))
(assert (= "7" (CharAt var19 227)))
(assert (= "w" (CharAt var22 321)))
(assert (= "f" (CharAt var38 606)))
(assert (= "H" (CharAt var10 213)))
(assert (= "b" (CharAt var21 955)))
(assert (= "U" (CharAt var45 528)))
(assert (= "^" (CharAt var32 836)))
(assert (= "d" (CharAt var16 659)))
(assert (= "1" (CharAt var21 99)))
(assert (= "n" (CharAt var2 557)))
(assert (= "`" (CharAt var23 675)))
(assert (= "b" (CharAt var44 277)))
(assert (= "C" (CharAt var14 81)))
(assert (= "[" (CharAt var27 134)))
(assert (= "2" (CharAt var59 299)))
(assert (= "V" (CharAt var55 570)))
(assert (= "9" (CharAt var13 531)))
(assert (= "D" (CharAt var17 797)))
(assert (= ">" (CharAt var24 332)))
(assert (= "+" (CharAt var21 774)))
(assert (= "U" (CharAt var28 240)))
(assert (= "|" (CharAt var53 787)))
(assert (= "\\" (CharAt var35 792)))
(assert (= "B" (CharAt var2 171)))
(assert (= ")" (CharAt var50 962)))
(assert (= "u" (CharAt var39 975)))
(assert (= "p" (CharAt var32 756)))
(assert (= "L" (CharAt var41 625)))
(assert (= "b" (CharAt var44 224)))
(assert (= "Q" (CharAt var37 249)))
(assert (= "0" (CharAt var3 688)))
(assert (= "h" (CharAt var55 447)))
(assert (= "d" (CharAt var59 107)))
(assert (= "U" (CharAt var4 51)))
(assert (= "J" (CharAt var7 269)))
(assert (= "H" (CharAt var5 257)))
(assert (= "X" (CharAt var5 924)))
(assert (= "p" (CharAt var16 894)))
(assert (= "b" (CharAt var7 444)))
(assert (= "$" (CharAt var60 53)))
(assert (= "u" (CharAt var30 341)))
(assert (= "," (CharAt var23 670)))
(assert (= "N" (CharAt var22 329)))
(assert (= "`" (CharAt var40 777)))
(assert (= "3" (CharAt var19 446)))
(assert (= "S" (CharAt var51 108)))
(assert (= "|" (CharAt var49 841)))
(assert (= "[" (CharAt var53 482)))
(assert (= "9" (CharAt var23 730)))
(assert (= "y" (CharAt var13 564)))
(assert (= "`" (CharAt var58 558)))
(assert (= "a" (CharAt var28 115)))
(assert (= "I" (CharAt var40 931)))
(assert (= "2" (CharAt var51 132)))
(assert (= "G" (CharAt var12 729)))
(assert (= "l" (CharAt var9 437)))
(assert (= "K" (CharAt var0 377)))
(assert (= "l" (CharAt var31 581)))
(assert (= "\\" (CharAt var6 185)))
(assert (= "4" (CharAt var52 503)))
(assert (= "X" (CharAt var26 103)))
(assert (= "r" (CharAt var49 147)))
(assert (= "_" (CharAt var21 95)))
(assert (= "E" (CharAt var60 415)))
(assert (= "Q" (CharAt var57 399)))
(assert (= "]" (CharAt var13 216)))
(assert (= "V" (CharAt var17 177)))
(assert (= "Q" (CharAt var9 596)))
(assert (= "M" (CharAt var2 466)))
(assert (= "O" (CharAt var31 75)))
(assert (= "Y" (CharAt var46 742)))
(assert (= "'" (CharAt var50 186)))
(assert (= "a" (CharAt var8 650)))
(assert (= "?" (CharAt var35 650)))
(assert (= "^" (CharAt var2 791)))
(assert (= "j" (CharAt var34 431)))
(assert (= "F" (CharAt var33 276)))
(assert (= "4" (CharAt var35 839)))
(assert (= "!" (CharAt var3 169)))
(assert (= "[" (CharAt var28 351)))
(assert (= "(" (CharAt var21 411)))
(assert (= ">" (CharAt var45 237)))
(assert (= ":" (CharAt var57 328)))
(assert (= "m" (CharAt var43 349)))
(assert (= "V" (CharAt var35 377)))
(assert (= "/" (CharAt var42 615)))
(assert (= "I" (CharAt var35 804)))
(assert (= ";" (CharAt var37 218)))
(assert (= "," (CharAt var57 891)))
(assert (= "L" (CharAt var19 581)))
(assert (= "I" (CharAt var25 568)))
(assert (= "y" (CharAt var23 92)))
(assert (= "N" (CharAt var2 711)))
(assert (= "&" (CharAt var19 668)))
(assert (= "Q" (CharAt var24 934)))
(assert (= "{" (CharAt var29 955)))
(assert (= "P" (CharAt var7 260)))
(assert (= "}" (CharAt var15 483)))
(assert (= "y" (CharAt var47 862)))
(assert (= "q" (CharAt var30 22)))
(assert (= "G" (CharAt var4 152)))
(assert (= "i" (CharAt var39 210)))
(assert (= "E" (CharAt var58 19)))
(assert (= "z" (CharAt var6 948)))
(assert (= "i" (CharAt var17 528)))
(assert (= "%" (CharAt var51 659)))
(assert (= ":" (CharAt var21 449)))
(assert (= "D" (CharAt var38 719)))
(assert (= "5" (CharAt var7 173)))
(assert (= "]" (CharAt var17 851)))
(assert (= "j" (CharAt var0 954)))
(assert (= "." (CharAt var27 675)))
(assert (= "5" (CharAt var31 410)))
(assert (= "1" (CharAt var19 619)))
(assert (= "0" (CharAt var19 189)))
(assert (= "N" (CharAt var46 199)))
(assert (= "@" (CharAt var29 182)))
(assert (= "X" (CharAt var26 521)))
(assert (= "u" (CharAt var18 644)))
(assert (= "c" (CharAt var38 292)))
(assert (= "Q" (CharAt var46 982)))
(assert (= "Q" (CharAt var50 790)))
(assert (= "P" (CharAt var44 795)))
(assert (= "y" (CharAt var16 895)))
(assert (= "a" (CharAt var6 670)))
(assert (= "!" (CharAt var9 670)))
(assert (= "a" (CharAt var11 215)))
(assert (= "P" (CharAt var2 746)))
(assert (= "+" (CharAt var8 460)))
(assert (= "8" (CharAt var41 434)))
(assert (= "#" (CharAt var60 149)))
(assert (= "5" (CharAt var33 590)))
(assert (= "Y" (CharAt var26 799)))
(assert (= "b" (CharAt var42 960)))
(assert (= "]" (CharAt var36 542)))
(assert (= "5" (CharAt var32 42)))
(assert (= "6" (CharAt var41 822)))
(assert (= "P" (CharAt var50 927)))
(assert (= "V" (CharAt var50 410)))
(assert (= "&" (CharAt var25 607)))
(assert (= "C" (CharAt var11 874)))
(assert (= "a" (CharAt var15 579)))
(assert (= "-" (CharAt var4 455)))
(assert (= "p" (CharAt var9 603)))
(assert (= "E" (CharAt var8 705)))
(assert (= "f" (CharAt var55 256)))
(assert (= "7" (CharAt var18 971)))
(assert (= "U" (CharAt var18 889)))
(assert (= "!" (CharAt var8 942)))
(assert (= "," (CharAt var29 865)))
(assert (= "D" (CharAt var11 744)))
(assert (= "L" (CharAt var2 67)))
(assert (= ">" (CharAt var43 379)))
(assert (= "\\" (CharAt var54 596)))
(assert (= "n" (CharAt var55 978)))
(assert (= "1" (CharAt var18 186)))
(assert (= "y" (CharAt var33 841)))
(assert (= "(" (CharAt var45 357)))
(assert (= "-" (CharAt var3 692)))
(assert (= "i" (CharAt var45 350)))
(assert (= "=" (CharAt var21 542)))
(assert (= "o" (CharAt var6 71)))
(assert (= "K" (CharAt var59 672)))
(assert (= "Y" (CharAt var14 557)))
(assert (= "[" (CharAt var60 222)))
(assert (= "p" (CharAt var35 242)))
(assert (= "U" (CharAt var56 557)))
(assert (= "O" (CharAt var58 819)))
(assert (= "U" (CharAt var13 259)))
(assert (= "<" (CharAt var2 391)))
(assert (= "-" (CharAt var59 550)))
(assert (= "Z" (CharAt var35 503)))
(assert (= "d" (CharAt var34 556)))
(assert (= "I" (CharAt var41 362)))
(assert (= ";" (CharAt var27 754)))
(assert (= "\\" (CharAt var51 226)))
(assert (= "?" (CharAt var25 846)))
(assert (= "+" (CharAt var53 995)))
(assert (= "]" (CharAt var60 707)))
(assert (= "7" (CharAt var7 596)))
(assert (= "d" (CharAt var35 357)))
(assert (= "6" (CharAt var27 541)))
(assert (= "!" (CharAt var41 416)))
(assert (= ">" (CharAt var15 96)))
(assert (= "s" (CharAt var6 394)))
(assert (= "p" (CharAt var37 545)))
(assert (= "j" (CharAt var18 69)))
(assert (= "4" (CharAt var11 231)))
(assert (= "I" (CharAt var60 43)))
(assert (= ":" (CharAt var29 87)))
(assert (= "D" (CharAt var13 664)))
(assert (= "," (CharAt var17 962)))
(assert (= "v" (CharAt var18 738)))
(assert (= "'" (CharAt var24 973)))
(assert (= "B" (CharAt var18 981)))
(assert (= ":" (CharAt var30 979)))
(assert (= "(" (CharAt var39 153)))
(assert (= "." (CharAt var59 400)))
(assert (= "l" (CharAt var10 939)))
(assert (= "j" (CharAt var23 701)))
(assert (= "K" (CharAt var13 527)))
(assert (= "$" (CharAt var47 98)))
(assert (= "T" (CharAt var20 76)))
(assert (= "t" (CharAt var15 209)))
(assert (= "N" (CharAt var40 629)))
(assert (= "b" (CharAt var36 100)))
(assert (= "_" (CharAt var20 269)))
(assert (= "8" (CharAt var48 714)))
(assert (= "C" (CharAt var32 110)))
(assert (= "?" (CharAt var52 918)))
(assert (= "L" (CharAt var9 32)))
(assert (= "W" (CharAt var55 802)))
(assert (= "&" (CharAt var44 741)))
(assert (= "$" (CharAt var24 667)))
(assert (= "6" (CharAt var25 917)))
(assert (= "l" (CharAt var3 620)))
(assert (= "2" (CharAt var32 203)))
(assert (= "-" (CharAt var49 331)))
(assert (= "W" (CharAt var26 434)))
(assert (= "K" (CharAt var4 315)))
(assert (= "[" (CharAt var55 235)))
(assert (= "0" (CharAt var30 458)))
(assert (= "4" (CharAt var54 693)))
(assert (= "i" (CharAt var55 537)))
(assert (= "q" (CharAt var24 249)))
(assert (= "U" (CharAt var4 867)))
(assert (= "&" (CharAt var38 612)))
(assert (= "$" (CharAt var34 35)))
(assert (= "4" (CharAt var52 624)))
(assert (= "\\" (CharAt var50 929)))
(assert (= "-" (CharAt var15 501)))
(assert (= "y" (CharAt var44 0)))
(assert (= "4" (CharAt var4 605)))
(assert (= "u" (CharAt var10 390)))
(assert (= "~" (CharAt var39 233)))
(assert (= "|" (CharAt var16 594)))
(assert (= "8" (CharAt var43 681)))
(assert (= "{" (CharAt var23 419)))
(assert (= ")" (CharAt var60 166)))
(assert (= "I" (CharAt var9 129)))
(assert (= "r" (CharAt var36 579)))
(assert (= "l" (CharAt var30 174)))
(assert (= "E" (CharAt var48 365)))
(assert (= "y" (CharAt var2 679)))
(assert (= "[" (CharAt var42 581)))
(assert (= "R" (CharAt var45 476)))
(assert (= "U" (CharAt var53 274)))
(assert (= "e" (CharAt var43 897)))
(assert (= "h" (CharAt var29 734)))
(assert (= "r" (CharAt var37 64)))
(assert (= "%" (CharAt var9 717)))
(assert (= "'" (CharAt var51 787)))
(assert (= "*" (CharAt var42 516)))
(assert (= "i" (CharAt var23 245)))
(assert (= "n" (CharAt var25 795)))
(assert (= "j" (CharAt var31 432)))
(assert (= "P" (CharAt var3 82)))
(assert (= "<" (CharAt var56 768)))
(assert (= "V" (CharAt var30 880)))
(assert (= "5" (CharAt var26 447)))
(assert (= "6" (CharAt var43 106)))
(assert (= "z" (CharAt var29 962)))
(assert (= "y" (CharAt var27 599)))
(assert (= "D" (CharAt var32 592)))
(assert (= "L" (CharAt var18 296)))
(assert (= "r" (CharAt var40 407)))
(assert (= "." (CharAt var49 69)))
(assert (= "p" (CharAt var20 858)))
(assert (= "l" (CharAt var47 723)))
(assert (= "2" (CharAt var2 883)))
(assert (= "`" (CharAt var51 199)))
(assert (= "n" (CharAt var41 967)))
(assert (= "%" (CharAt var13 282)))
(assert (= "2" (CharAt var28 542)))
(assert (= ">" (CharAt var16 125)))
(assert (= "6" (CharAt var35 456)))
(assert (= "R" (CharAt var22 171)))
(assert (= "c" (CharAt var35 158)))
(assert (= "P" (CharAt var57 951)))
(assert (= "M" (CharAt var55 992)))
(assert (= "<" (CharAt var56 498)))
(assert (= "+" (CharAt var17 77)))
(assert (= "c" (CharAt var36 599)))
(assert (= "/" (CharAt var53 204)))
(assert (= "[" (CharAt var37 478)))
(assert (= "l" (CharAt var1 648)))
(assert (= "C" (CharAt var45 963)))
(assert (= "^" (CharAt var21 294)))
(assert (= "/" (CharAt var3 971)))
(assert (= "e" (CharAt var21 44)))
(assert (= "5" (CharAt var59 173)))
(assert (= "h" (CharAt var9 905)))
(assert (= "c" (CharAt var48 447)))
(assert (= "N" (CharAt var12 511)))
(assert (= "6" (CharAt var43 853)))
(assert (= "L" (CharAt var31 776)))
(assert (= "q" (CharAt var56 907)))
(assert (= "C" (CharAt var35 874)))
(assert (= "2" (CharAt var48 995)))
(assert (= "k" (CharAt var48 643)))
(assert (= "p" (CharAt var14 910)))
(assert (= "K" (CharAt var39 619)))
(assert (= "_" (CharAt var26 613)))
(assert (= "'" (CharAt var49 961)))
(assert (= "\\" (CharAt var3 841)))
(assert (= "f" (CharAt var12 485)))
(assert (= "0" (CharAt var34 254)))
(assert (= "}" (CharAt var13 426)))
(assert (= "Q" (CharAt var44 162)))
(assert (= ">" (CharAt var38 91)))
(assert (= "1" (CharAt var42 228)))
(assert (= "z" (CharAt var33 329)))
(assert (= "n" (CharAt var7 649)))
(assert (= "h" (CharAt var53 887)))
(assert (= "=" (CharAt var9 563)))
(assert (= "\"" (CharAt var26 179)))
(assert (= "T" (CharAt var20 988)))
(assert (= "F" (CharAt var43 332)))
(assert (= "P" (CharAt var44 965)))
(assert (= "t" (CharAt var18 594)))
(assert (= "K" (CharAt var41 609)))
(assert (= "c" (CharAt var18 366)))
(assert (= "Q" (CharAt var47 823)))
(assert (= ">" (CharAt var33 48)))
(assert (= "N" (CharAt var15 588)))
(assert (= "v" (CharAt var10 790)))
(assert (= "$" (CharAt var50 257)))
(assert (= "x" (CharAt var26 11)))
(assert (= "9" (CharAt var10 464)))
(assert (= "^" (CharAt var23 608)))
(assert (= "p" (CharAt var1 901)))
(assert (= "p" (CharAt var39 970)))
(assert (= "^" (CharAt var59 572)))
(assert (= "\"" (CharAt var27 779)))
(assert (= "7" (CharAt var25 688)))
(assert (= "'" (CharAt var32 956)))
(assert (= "$" (CharAt var23 321)))
(assert (= "s" (CharAt var54 58)))
(assert (= "\"" (CharAt var29 930)))
(assert (= "b" (CharAt var23 171)))
(assert (= "9" (CharAt var49 868)))
(assert (= "c" (CharAt var27 795)))
(assert (= "F" (CharAt var27 830)))
(assert (= "V" (CharAt var20 501)))
(assert (= "N" (CharAt var27 3)))
(assert (= "]" (CharAt var34 195)))
(assert (= "," (CharAt var32 477)))
(assert (= "4" (CharAt var10 371)))
(assert (= "@" (CharAt var10 27)))
(assert (= "Q" (CharAt var28 56)))
(assert (= "=" (CharAt var0 382)))
(assert (= "f" (CharAt var52 975)))
(assert (= "P" (CharAt var14 277)))
(assert (= "-" (CharAt var59 31)))
(assert (= "K" (CharAt var48 12)))
(assert (= ")" (CharAt var19 458)))
(assert (= "`" (CharAt var42 484)))
(assert (= "o" (CharAt var0 434)))
(assert (= "l" (CharAt var50 431)))
(assert (= "9" (CharAt var54 853)))
(assert (= "u" (CharAt var47 772)))
(assert (= "n" (CharAt var3 995)))
(assert (= "." (CharAt var21 1000)))
(assert (= "," (CharAt var45 961)))
(assert (= "I" (CharAt var41 571)))
(assert (= "'" (CharAt var13 780)))
(assert (= "<" (CharAt var10 696)))
(assert (= "G" (CharAt var35 644)))
(assert (= "s" (CharAt var40 596)))
(assert (= "3" (CharAt var33 358)))
(assert (= "W" (CharAt var42 838)))
(assert (= "n" (CharAt var57 209)))
(assert (= "h" (CharAt var26 998)))
(assert (= "p" (CharAt var25 595)))
(assert (= ">" (CharAt var9 575)))
(check-sat)